Test: battleship-24-57-sat.cnf
Options: -no-inverting-opt -sym-usage-var-bump
WARNING: for repeatability, setting FPU to use double precision
============================[ Problem Statistics ]=============================
|                                                                             |
|  Number of symmetries:           41                                         |
|  Number of invertingSyms:         0                                         |
|  Number of variables:          1368                                         |
|  Number of clauses:           16308                                         |
|  Parse time:                   0.01 s                                       |
|                                                                             |
============================[ Search Statistics ]==============================
| Conflicts |          ORIGINAL         |          LEARNT          | Progress |
|           |    Vars  Clauses Literals |    Limit  Clauses Lit/Cl |          |
===============================================================================
|       100 |    1368    16308    64296 |     5979      188    711 |  0.000 % |
|       250 |    1368    16308    64296 |     6577      358    497 |  0.000 % |
|       475 |    1368    16308    64296 |     7235      641    393 |  0.000 % |
|       812 |    1368    16308    64296 |     7958     1066    354 |  0.000 % |
|      1318 |    1368    16308    64296 |     8754     1707    356 |  0.000 % |
|      2077 |    1368    16308    64296 |     9630     2709    340 |  0.000 % |
|      3216 |    1368    16308    64296 |    10593     4197    366 |  0.000 % |
|      4924 |    1368    16308    64296 |    11652     6457    342 |  0.000 % |
|      7486 |    1368    16308    64296 |    12817     9559    382 |  0.000 % |
|     11330 |    1368    16308    64296 |    14099     8073    402 |  0.000 % |
|     17096 |    1368    16308    64296 |    15509    15227    405 |  0.000 % |
|     25745 |    1368    16308    64296 |    17060     9705    395 |  0.000 % |
|     38719 |    1368    16308    64296 |    18766     8916    423 |  0.000 % |
|     58180 |    1368    16308    64296 |    20643    14696    375 |  0.000 % |
|     87372 |    1368    16308    64296 |    22707    19052    464 |  0.000 % |
|    131161 |    1368    16308    64296 |    24978    13923    384 |  0.000 % |
|    196845 |    1368    16308    64296 |    27476    18897    591 |  0.000 % |
|    295371 |    1368    16308    64296 |    30223    26057    385 |  0.000 % |
|    443160 |    1368    16308    64296 |    33246    28893    646 |  0.000 % |
|    664843 |    1368    16308    64296 |    36570    25797    469 |  0.000 % |
===============================================================================
restarts              : 1789
conflicts             : 845029         (4447 /sec)
symconflicts          : 45280          (238 /sec)
decisions             : 3863162        (0.00 % random) (20328 /sec)
propagations          : 25846798       (136007 /sec)
sympropagations       : 204386         (1075 /sec)
conflict literals     : 411590073      (1.66 % deleted)
literals     : 411590073      (1.66 % deleted)

HEURISTIC USAGES
random                : 0           
activity w/ lookahead : 0           
activity no lookahead : 0           
original sp           : 3863161     
sym count             : 0           

Memory used           : 247.00 MB
CPU time              : 190.04 s

SATISFIABLE
